DIMENSION: 9
EDGE_WEIGHT_TYPE: EXPLICIT
EDGE_WEIGHT_FORMAT: FULL_MATRIX
EDGE_WEIGHT_SECTION:
32767 9 32767 22 83 32767 55 32767 32767 
9 32767 64 32767 32767 37 32767 43 32767 
32767 64 32767 56 72 70 32767 92 73 
22 32767 56 32767 32767 94 1 32767 32767 
83 32767 72 32767 32767 48 32767 32767 67 
32767 37 70 94 48 32767 32767 32767 32767 
55 32767 32767 1 32767 32767 32767 5 27 
32767 43 92 32767 32767 32767 5 32767 32767 
32767 32767 73 32767 67 32767 27 32767 32767 
EOF